# Objective value = 6
x0,1_2 0
x0,1_10 0
x0,1_11 1
x0,1_13 0
x0,1_14 0
x0,1_15 0
x0,1_16 0
x0,1_21 0
x0,1_23 0
x0,1_25 0
x0,1_29 0
x0,1_34 0
x0,1_36 0
x0,1_39 0
x0,1_50 0
x0,2_2 0
x0,2_10 0
x0,2_11 0
x0,2_13 0
x0,2_14 0
x0,2_15 0
x0,2_16 0
x0,2_21 1
x0,2_23 0
x0,2_25 0
x0,2_29 0
x0,2_34 0
x0,2_36 0
x0,2_39 0
x0,2_50 0
x0,3_2 0
x0,3_10 0
x0,3_11 0
x0,3_13 0
x0,3_14 0
x0,3_15 0
x0,3_16 0
x0,3_21 0
x0,3_23 0
x0,3_25 0
x0,3_29 0
x0,3_34 1
x0,3_36 0
x0,3_39 0
x0,3_50 0
x0,4_2 0
x0,4_10 0
x0,4_11 0
x0,4_13 0
x0,4_14 0
x0,4_15 0
x0,4_16 0
x0,4_21 0
x0,4_23 0
x0,4_25 0
x0,4_29 0
x0,4_34 0
x0,4_36 1
x0,4_39 0
x0,4_50 0
x0,5_2 0
x0,5_10 0
x0,5_11 0
x0,5_13 0
x0,5_14 0
x0,5_15 0
x0,5_16 0
x0,5_21 0
x0,5_23 0
x0,5_25 0
x0,5_29 0
x0,5_34 0
x0,5_36 0
x0,5_39 0
x0,5_50 1
x0,6_2 0
x0,6_10 0
x0,6_11 0
x0,6_13 0
x0,6_14 0
x0,6_15 0
x0,6_16 0
x0,6_21 0
x0,6_23 0
x0,6_25 0
x0,6_29 0
x0,6_34 0
x0,6_36 0
x0,6_39 0
x0,6_50 0
x0,7_2 0
x0,7_10 0
x0,7_11 0
x0,7_13 0
x0,7_14 0
x0,7_15 0
x0,7_16 0
x0,7_21 0
x0,7_23 0
x0,7_25 0
x0,7_29 0
x0,7_34 0
x0,7_36 0
x0,7_39 0
x0,7_50 0
x0,8_2 0
x0,8_10 0
x0,8_11 0
x0,8_13 0
x0,8_14 0
x0,8_15 0
x0,8_16 0
x0,8_21 0
x0,8_23 0
x0,8_25 0
x0,8_29 0
x0,8_34 0
x0,8_36 0
x0,8_39 0
x0,8_50 0
x0,9_2 0
x0,9_10 0
x0,9_11 0
x0,9_13 0
x0,9_14 0
x0,9_15 0
x0,9_16 0
x0,9_21 0
x0,9_23 0
x0,9_25 0
x0,9_29 0
x0,9_34 0
x0,9_36 0
x0,9_39 0
x0,9_50 0
x0,10_2 0
x0,10_10 0
x0,10_11 0
x0,10_13 0
x0,10_14 0
x0,10_15 0
x0,10_16 0
x0,10_21 0
x0,10_23 0
x0,10_25 0
x0,10_29 0
x0,10_34 0
x0,10_36 0
x0,10_39 0
x0,10_50 0
x0,11_2 0
x0,11_10 0
x0,11_11 0
x0,11_13 0
x0,11_14 0
x0,11_15 0
x0,11_16 0
x0,11_21 0
x0,11_23 0
x0,11_25 0
x0,11_29 0
x0,11_34 0
x0,11_36 0
x0,11_39 0
x0,11_50 0
x0,12_2 0
x0,12_10 0
x0,12_11 0
x0,12_13 0
x0,12_14 0
x0,12_15 0
x0,12_16 0
x0,12_21 0
x0,12_23 0
x0,12_25 0
x0,12_29 0
x0,12_34 0
x0,12_36 0
x0,12_39 0
x0,12_50 0
x0,13_2 0
x0,13_10 0
x0,13_11 0
x0,13_13 0
x0,13_14 0
x0,13_15 0
x0,13_16 0
x0,13_21 0
x0,13_23 0
x0,13_25 0
x0,13_29 0
x0,13_34 0
x0,13_36 0
x0,13_39 0
x0,13_50 0
x0,14_2 0
x0,14_10 0
x0,14_11 0
x0,14_13 0
x0,14_14 0
x0,14_15 0
x0,14_16 0
x0,14_21 0
x0,14_23 0
x0,14_25 0
x0,14_29 0
x0,14_34 0
x0,14_36 0
x0,14_39 0
x0,14_50 0
x0,15_2 0
x0,15_10 0
x0,15_11 0
x0,15_13 0
x0,15_14 0
x0,15_15 0
x0,15_16 0
x0,15_21 0
x0,15_23 0
x0,15_25 0
x0,15_29 0
x0,15_34 0
x0,15_36 0
x0,15_39 0
x0,15_50 0
x1,2_2 0
x1,2_10 1
x1,2_11 0
x1,2_13 0
x1,2_14 0
x1,2_15 0
x1,2_16 0
x1,2_21 0
x1,2_23 0
x1,2_25 0
x1,2_29 0
x1,2_34 0
x1,2_36 0
x1,2_39 0
x1,2_50 0
x1,3_2 0
x1,3_10 0
x1,3_11 0
x1,3_13 0
x1,3_14 0
x1,3_15 0
x1,3_16 0
x1,3_21 0
x1,3_23 1
x1,3_25 0
x1,3_29 0
x1,3_34 0
x1,3_36 0
x1,3_39 0
x1,3_50 0
x1,4_2 0
x1,4_10 0
x1,4_11 0
x1,4_13 0
x1,4_14 0
x1,4_15 0
x1,4_16 0
x1,4_21 0
x1,4_23 0
x1,4_25 1
x1,4_29 0
x1,4_34 0
x1,4_36 0
x1,4_39 0
x1,4_50 0
x1,5_2 0
x1,5_10 0
x1,5_11 0
x1,5_13 0
x1,5_14 0
x1,5_15 0
x1,5_16 0
x1,5_21 0
x1,5_23 0
x1,5_25 0
x1,5_29 0
x1,5_34 0
x1,5_36 0
x1,5_39 1
x1,5_50 0
x1,6_2 0
x1,6_10 0
x1,6_11 0
x1,6_13 0
x1,6_14 0
x1,6_15 0
x1,6_16 0
x1,6_21 0
x1,6_23 0
x1,6_25 0
x1,6_29 0
x1,6_34 0
x1,6_36 0
x1,6_39 0
x1,6_50 0
x1,7_2 0
x1,7_10 0
x1,7_11 0
x1,7_13 0
x1,7_14 0
x1,7_15 0
x1,7_16 0
x1,7_21 0
x1,7_23 0
x1,7_25 0
x1,7_29 0
x1,7_34 0
x1,7_36 0
x1,7_39 0
x1,7_50 0
x1,8_2 0
x1,8_10 0
x1,8_11 0
x1,8_13 0
x1,8_14 0
x1,8_15 0
x1,8_16 0
x1,8_21 0
x1,8_23 0
x1,8_25 0
x1,8_29 0
x1,8_34 0
x1,8_36 0
x1,8_39 0
x1,8_50 0
x1,9_2 0
x1,9_10 0
x1,9_11 0
x1,9_13 0
x1,9_14 0
x1,9_15 0
x1,9_16 0
x1,9_21 0
x1,9_23 0
x1,9_25 0
x1,9_29 0
x1,9_34 0
x1,9_36 0
x1,9_39 0
x1,9_50 0
x1,10_2 0
x1,10_10 0
x1,10_11 0
x1,10_13 0
x1,10_14 0
x1,10_15 0
x1,10_16 0
x1,10_21 0
x1,10_23 0
x1,10_25 0
x1,10_29 0
x1,10_34 0
x1,10_36 0
x1,10_39 0
x1,10_50 0
x1,11_2 0
x1,11_10 0
x1,11_11 0
x1,11_13 0
x1,11_14 0
x1,11_15 0
x1,11_16 0
x1,11_21 0
x1,11_23 0
x1,11_25 0
x1,11_29 0
x1,11_34 0
x1,11_36 0
x1,11_39 0
x1,11_50 0
x1,12_2 0
x1,12_10 0
x1,12_11 0
x1,12_13 0
x1,12_14 0
x1,12_15 0
x1,12_16 0
x1,12_21 0
x1,12_23 0
x1,12_25 0
x1,12_29 0
x1,12_34 0
x1,12_36 0
x1,12_39 0
x1,12_50 0
x1,13_2 0
x1,13_10 0
x1,13_11 0
x1,13_13 0
x1,13_14 0
x1,13_15 0
x1,13_16 0
x1,13_21 0
x1,13_23 0
x1,13_25 0
x1,13_29 0
x1,13_34 0
x1,13_36 0
x1,13_39 0
x1,13_50 0
x1,14_2 0
x1,14_10 0
x1,14_11 0
x1,14_13 0
x1,14_14 0
x1,14_15 0
x1,14_16 0
x1,14_21 0
x1,14_23 0
x1,14_25 0
x1,14_29 0
x1,14_34 0
x1,14_36 0
x1,14_39 0
x1,14_50 0
x1,15_2 0
x1,15_10 0
x1,15_11 0
x1,15_13 0
x1,15_14 0
x1,15_15 0
x1,15_16 0
x1,15_21 0
x1,15_23 0
x1,15_25 0
x1,15_29 0
x1,15_34 0
x1,15_36 0
x1,15_39 0
x1,15_50 0
x2,3_2 0
x2,3_10 0
x2,3_11 0
x2,3_13 1
x2,3_14 0
x2,3_15 0
x2,3_16 0
x2,3_21 0
x2,3_23 0
x2,3_25 0
x2,3_29 0
x2,3_34 0
x2,3_36 0
x2,3_39 0
x2,3_50 0
x2,4_2 0
x2,4_10 0
x2,4_11 0
x2,4_13 0
x2,4_14 0
x2,4_15 1
x2,4_16 0
x2,4_21 0
x2,4_23 0
x2,4_25 0
x2,4_29 0
x2,4_34 0
x2,4_36 0
x2,4_39 0
x2,4_50 0
x2,5_2 0
x2,5_10 0
x2,5_11 0
x2,5_13 0
x2,5_14 0
x2,5_15 0
x2,5_16 0
x2,5_21 0
x2,5_23 0
x2,5_25 0
x2,5_29 1
x2,5_34 0
x2,5_36 0
x2,5_39 0
x2,5_50 0
x2,6_2 0
x2,6_10 0
x2,6_11 0
x2,6_13 0
x2,6_14 0
x2,6_15 0
x2,6_16 0
x2,6_21 0
x2,6_23 0
x2,6_25 0
x2,6_29 0
x2,6_34 0
x2,6_36 0
x2,6_39 0
x2,6_50 0
x2,7_2 0
x2,7_10 0
x2,7_11 0
x2,7_13 0
x2,7_14 0
x2,7_15 0
x2,7_16 0
x2,7_21 0
x2,7_23 0
x2,7_25 0
x2,7_29 0
x2,7_34 0
x2,7_36 0
x2,7_39 0
x2,7_50 0
x2,8_2 0
x2,8_10 0
x2,8_11 0
x2,8_13 0
x2,8_14 0
x2,8_15 0
x2,8_16 0
x2,8_21 0
x2,8_23 0
x2,8_25 0
x2,8_29 0
x2,8_34 0
x2,8_36 0
x2,8_39 0
x2,8_50 0
x2,9_2 0
x2,9_10 0
x2,9_11 0
x2,9_13 0
x2,9_14 0
x2,9_15 0
x2,9_16 0
x2,9_21 0
x2,9_23 0
x2,9_25 0
x2,9_29 0
x2,9_34 0
x2,9_36 0
x2,9_39 0
x2,9_50 0
x2,10_2 0
x2,10_10 0
x2,10_11 0
x2,10_13 0
x2,10_14 0
x2,10_15 0
x2,10_16 0
x2,10_21 0
x2,10_23 0
x2,10_25 0
x2,10_29 0
x2,10_34 0
x2,10_36 0
x2,10_39 0
x2,10_50 0
x2,11_2 0
x2,11_10 0
x2,11_11 0
x2,11_13 0
x2,11_14 0
x2,11_15 0
x2,11_16 0
x2,11_21 0
x2,11_23 0
x2,11_25 0
x2,11_29 0
x2,11_34 0
x2,11_36 0
x2,11_39 0
x2,11_50 0
x2,12_2 0
x2,12_10 0
x2,12_11 0
x2,12_13 0
x2,12_14 0
x2,12_15 0
x2,12_16 0
x2,12_21 0
x2,12_23 0
x2,12_25 0
x2,12_29 0
x2,12_34 0
x2,12_36 0
x2,12_39 0
x2,12_50 0
x2,13_2 0
x2,13_10 0
x2,13_11 0
x2,13_13 0
x2,13_14 0
x2,13_15 0
x2,13_16 0
x2,13_21 0
x2,13_23 0
x2,13_25 0
x2,13_29 0
x2,13_34 0
x2,13_36 0
x2,13_39 0
x2,13_50 0
x2,14_2 0
x2,14_10 0
x2,14_11 0
x2,14_13 0
x2,14_14 0
x2,14_15 0
x2,14_16 0
x2,14_21 0
x2,14_23 0
x2,14_25 0
x2,14_29 0
x2,14_34 0
x2,14_36 0
x2,14_39 0
x2,14_50 0
x2,15_2 0
x2,15_10 0
x2,15_11 0
x2,15_13 0
x2,15_14 0
x2,15_15 0
x2,15_16 0
x2,15_21 0
x2,15_23 0
x2,15_25 0
x2,15_29 0
x2,15_34 0
x2,15_36 0
x2,15_39 0
x2,15_50 0
x3,4_2 1
x3,4_10 0
x3,4_11 0
x3,4_13 0
x3,4_14 0
x3,4_15 0
x3,4_16 0
x3,4_21 0
x3,4_23 0
x3,4_25 0
x3,4_29 0
x3,4_34 0
x3,4_36 0
x3,4_39 0
x3,4_50 0
x3,5_2 0
x3,5_10 0
x3,5_11 0
x3,5_13 0
x3,5_14 0
x3,5_15 0
x3,5_16 1
x3,5_21 0
x3,5_23 0
x3,5_25 0
x3,5_29 0
x3,5_34 0
x3,5_36 0
x3,5_39 0
x3,5_50 0
x3,6_2 0
x3,6_10 0
x3,6_11 0
x3,6_13 0
x3,6_14 0
x3,6_15 0
x3,6_16 0
x3,6_21 0
x3,6_23 0
x3,6_25 0
x3,6_29 0
x3,6_34 0
x3,6_36 0
x3,6_39 0
x3,6_50 0
x3,7_2 0
x3,7_10 0
x3,7_11 0
x3,7_13 0
x3,7_14 0
x3,7_15 0
x3,7_16 0
x3,7_21 0
x3,7_23 0
x3,7_25 0
x3,7_29 0
x3,7_34 0
x3,7_36 0
x3,7_39 0
x3,7_50 0
x3,8_2 0
x3,8_10 0
x3,8_11 0
x3,8_13 0
x3,8_14 0
x3,8_15 0
x3,8_16 0
x3,8_21 0
x3,8_23 0
x3,8_25 0
x3,8_29 0
x3,8_34 0
x3,8_36 0
x3,8_39 0
x3,8_50 0
x3,9_2 0
x3,9_10 0
x3,9_11 0
x3,9_13 0
x3,9_14 0
x3,9_15 0
x3,9_16 0
x3,9_21 0
x3,9_23 0
x3,9_25 0
x3,9_29 0
x3,9_34 0
x3,9_36 0
x3,9_39 0
x3,9_50 0
x3,10_2 0
x3,10_10 0
x3,10_11 0
x3,10_13 0
x3,10_14 0
x3,10_15 0
x3,10_16 0
x3,10_21 0
x3,10_23 0
x3,10_25 0
x3,10_29 0
x3,10_34 0
x3,10_36 0
x3,10_39 0
x3,10_50 0
x3,11_2 0
x3,11_10 0
x3,11_11 0
x3,11_13 0
x3,11_14 0
x3,11_15 0
x3,11_16 0
x3,11_21 0
x3,11_23 0
x3,11_25 0
x3,11_29 0
x3,11_34 0
x3,11_36 0
x3,11_39 0
x3,11_50 0
x3,12_2 0
x3,12_10 0
x3,12_11 0
x3,12_13 0
x3,12_14 0
x3,12_15 0
x3,12_16 0
x3,12_21 0
x3,12_23 0
x3,12_25 0
x3,12_29 0
x3,12_34 0
x3,12_36 0
x3,12_39 0
x3,12_50 0
x3,13_2 0
x3,13_10 0
x3,13_11 0
x3,13_13 0
x3,13_14 0
x3,13_15 0
x3,13_16 0
x3,13_21 0
x3,13_23 0
x3,13_25 0
x3,13_29 0
x3,13_34 0
x3,13_36 0
x3,13_39 0
x3,13_50 0
x3,14_2 0
x3,14_10 0
x3,14_11 0
x3,14_13 0
x3,14_14 0
x3,14_15 0
x3,14_16 0
x3,14_21 0
x3,14_23 0
x3,14_25 0
x3,14_29 0
x3,14_34 0
x3,14_36 0
x3,14_39 0
x3,14_50 0
x3,15_2 0
x3,15_10 0
x3,15_11 0
x3,15_13 0
x3,15_14 0
x3,15_15 0
x3,15_16 0
x3,15_21 0
x3,15_23 0
x3,15_25 0
x3,15_29 0
x3,15_34 0
x3,15_36 0
x3,15_39 0
x3,15_50 0
x4,5_2 0
x4,5_10 0
x4,5_11 0
x4,5_13 0
x4,5_14 1
x4,5_15 0
x4,5_16 0
x4,5_21 0
x4,5_23 0
x4,5_25 0
x4,5_29 0
x4,5_34 0
x4,5_36 0
x4,5_39 0
x4,5_50 0
x4,6_2 0
x4,6_10 0
x4,6_11 0
x4,6_13 0
x4,6_14 0
x4,6_15 0
x4,6_16 0
x4,6_21 0
x4,6_23 0
x4,6_25 0
x4,6_29 0
x4,6_34 0
x4,6_36 0
x4,6_39 0
x4,6_50 0
x4,7_2 0
x4,7_10 0
x4,7_11 0
x4,7_13 0
x4,7_14 0
x4,7_15 0
x4,7_16 0
x4,7_21 0
x4,7_23 0
x4,7_25 0
x4,7_29 0
x4,7_34 0
x4,7_36 0
x4,7_39 0
x4,7_50 0
x4,8_2 0
x4,8_10 0
x4,8_11 0
x4,8_13 0
x4,8_14 0
x4,8_15 0
x4,8_16 0
x4,8_21 0
x4,8_23 0
x4,8_25 0
x4,8_29 0
x4,8_34 0
x4,8_36 0
x4,8_39 0
x4,8_50 0
x4,9_2 0
x4,9_10 0
x4,9_11 0
x4,9_13 0
x4,9_14 0
x4,9_15 0
x4,9_16 0
x4,9_21 0
x4,9_23 0
x4,9_25 0
x4,9_29 0
x4,9_34 0
x4,9_36 0
x4,9_39 0
x4,9_50 0
x4,10_2 0
x4,10_10 0
x4,10_11 0
x4,10_13 0
x4,10_14 0
x4,10_15 0
x4,10_16 0
x4,10_21 0
x4,10_23 0
x4,10_25 0
x4,10_29 0
x4,10_34 0
x4,10_36 0
x4,10_39 0
x4,10_50 0
x4,11_2 0
x4,11_10 0
x4,11_11 0
x4,11_13 0
x4,11_14 0
x4,11_15 0
x4,11_16 0
x4,11_21 0
x4,11_23 0
x4,11_25 0
x4,11_29 0
x4,11_34 0
x4,11_36 0
x4,11_39 0
x4,11_50 0
x4,12_2 0
x4,12_10 0
x4,12_11 0
x4,12_13 0
x4,12_14 0
x4,12_15 0
x4,12_16 0
x4,12_21 0
x4,12_23 0
x4,12_25 0
x4,12_29 0
x4,12_34 0
x4,12_36 0
x4,12_39 0
x4,12_50 0
x4,13_2 0
x4,13_10 0
x4,13_11 0
x4,13_13 0
x4,13_14 0
x4,13_15 0
x4,13_16 0
x4,13_21 0
x4,13_23 0
x4,13_25 0
x4,13_29 0
x4,13_34 0
x4,13_36 0
x4,13_39 0
x4,13_50 0
x4,14_2 0
x4,14_10 0
x4,14_11 0
x4,14_13 0
x4,14_14 0
x4,14_15 0
x4,14_16 0
x4,14_21 0
x4,14_23 0
x4,14_25 0
x4,14_29 0
x4,14_34 0
x4,14_36 0
x4,14_39 0
x4,14_50 0
x4,15_2 0
x4,15_10 0
x4,15_11 0
x4,15_13 0
x4,15_14 0
x4,15_15 0
x4,15_16 0
x4,15_21 0
x4,15_23 0
x4,15_25 0
x4,15_29 0
x4,15_34 0
x4,15_36 0
x4,15_39 0
x4,15_50 0
x5,6_2 0
x5,6_10 0
x5,6_11 0
x5,6_13 0
x5,6_14 0
x5,6_15 0
x5,6_16 0
x5,6_21 0
x5,6_23 0
x5,6_25 0
x5,6_29 0
x5,6_34 0
x5,6_36 0
x5,6_39 0
x5,6_50 0
x5,7_2 0
x5,7_10 0
x5,7_11 0
x5,7_13 0
x5,7_14 0
x5,7_15 0
x5,7_16 0
x5,7_21 0
x5,7_23 0
x5,7_25 0
x5,7_29 0
x5,7_34 0
x5,7_36 0
x5,7_39 0
x5,7_50 0
x5,8_2 0
x5,8_10 0
x5,8_11 0
x5,8_13 0
x5,8_14 0
x5,8_15 0
x5,8_16 0
x5,8_21 0
x5,8_23 0
x5,8_25 0
x5,8_29 0
x5,8_34 0
x5,8_36 0
x5,8_39 0
x5,8_50 0
x5,9_2 0
x5,9_10 0
x5,9_11 0
x5,9_13 0
x5,9_14 0
x5,9_15 0
x5,9_16 0
x5,9_21 0
x5,9_23 0
x5,9_25 0
x5,9_29 0
x5,9_34 0
x5,9_36 0
x5,9_39 0
x5,9_50 0
x5,10_2 0
x5,10_10 0
x5,10_11 0
x5,10_13 0
x5,10_14 0
x5,10_15 0
x5,10_16 0
x5,10_21 0
x5,10_23 0
x5,10_25 0
x5,10_29 0
x5,10_34 0
x5,10_36 0
x5,10_39 0
x5,10_50 0
x5,11_2 0
x5,11_10 0
x5,11_11 0
x5,11_13 0
x5,11_14 0
x5,11_15 0
x5,11_16 0
x5,11_21 0
x5,11_23 0
x5,11_25 0
x5,11_29 0
x5,11_34 0
x5,11_36 0
x5,11_39 0
x5,11_50 0
x5,12_2 0
x5,12_10 0
x5,12_11 0
x5,12_13 0
x5,12_14 0
x5,12_15 0
x5,12_16 0
x5,12_21 0
x5,12_23 0
x5,12_25 0
x5,12_29 0
x5,12_34 0
x5,12_36 0
x5,12_39 0
x5,12_50 0
x5,13_2 0
x5,13_10 0
x5,13_11 0
x5,13_13 0
x5,13_14 0
x5,13_15 0
x5,13_16 0
x5,13_21 0
x5,13_23 0
x5,13_25 0
x5,13_29 0
x5,13_34 0
x5,13_36 0
x5,13_39 0
x5,13_50 0
x5,14_2 0
x5,14_10 0
x5,14_11 0
x5,14_13 0
x5,14_14 0
x5,14_15 0
x5,14_16 0
x5,14_21 0
x5,14_23 0
x5,14_25 0
x5,14_29 0
x5,14_34 0
x5,14_36 0
x5,14_39 0
x5,14_50 0
x5,15_2 0
x5,15_10 0
x5,15_11 0
x5,15_13 0
x5,15_14 0
x5,15_15 0
x5,15_16 0
x5,15_21 0
x5,15_23 0
x5,15_25 0
x5,15_29 0
x5,15_34 0
x5,15_36 0
x5,15_39 0
x5,15_50 0
x6,7_2 0
x6,7_10 0
x6,7_11 0
x6,7_13 0
x6,7_14 0
x6,7_15 0
x6,7_16 0
x6,7_21 0
x6,7_23 0
x6,7_25 0
x6,7_29 0
x6,7_34 0
x6,7_36 0
x6,7_39 0
x6,7_50 0
x6,8_2 0
x6,8_10 0
x6,8_11 0
x6,8_13 0
x6,8_14 0
x6,8_15 0
x6,8_16 0
x6,8_21 0
x6,8_23 0
x6,8_25 0
x6,8_29 0
x6,8_34 0
x6,8_36 0
x6,8_39 0
x6,8_50 0
x6,9_2 0
x6,9_10 0
x6,9_11 0
x6,9_13 0
x6,9_14 0
x6,9_15 0
x6,9_16 0
x6,9_21 0
x6,9_23 0
x6,9_25 0
x6,9_29 0
x6,9_34 0
x6,9_36 0
x6,9_39 0
x6,9_50 0
x6,10_2 0
x6,10_10 0
x6,10_11 0
x6,10_13 0
x6,10_14 0
x6,10_15 0
x6,10_16 0
x6,10_21 0
x6,10_23 0
x6,10_25 0
x6,10_29 0
x6,10_34 0
x6,10_36 0
x6,10_39 0
x6,10_50 0
x6,11_2 0
x6,11_10 0
x6,11_11 0
x6,11_13 0
x6,11_14 0
x6,11_15 0
x6,11_16 0
x6,11_21 0
x6,11_23 0
x6,11_25 0
x6,11_29 0
x6,11_34 0
x6,11_36 0
x6,11_39 0
x6,11_50 0
x6,12_2 0
x6,12_10 0
x6,12_11 0
x6,12_13 0
x6,12_14 0
x6,12_15 0
x6,12_16 0
x6,12_21 0
x6,12_23 0
x6,12_25 0
x6,12_29 0
x6,12_34 0
x6,12_36 0
x6,12_39 0
x6,12_50 0
x6,13_2 0
x6,13_10 0
x6,13_11 0
x6,13_13 0
x6,13_14 0
x6,13_15 0
x6,13_16 0
x6,13_21 0
x6,13_23 0
x6,13_25 0
x6,13_29 0
x6,13_34 0
x6,13_36 0
x6,13_39 0
x6,13_50 0
x6,14_2 0
x6,14_10 0
x6,14_11 0
x6,14_13 0
x6,14_14 0
x6,14_15 0
x6,14_16 0
x6,14_21 0
x6,14_23 0
x6,14_25 0
x6,14_29 0
x6,14_34 0
x6,14_36 0
x6,14_39 0
x6,14_50 0
x6,15_2 0
x6,15_10 0
x6,15_11 0
x6,15_13 0
x6,15_14 0
x6,15_15 0
x6,15_16 0
x6,15_21 0
x6,15_23 0
x6,15_25 0
x6,15_29 0
x6,15_34 0
x6,15_36 0
x6,15_39 0
x6,15_50 0
x7,8_2 0
x7,8_10 0
x7,8_11 0
x7,8_13 0
x7,8_14 0
x7,8_15 0
x7,8_16 0
x7,8_21 0
x7,8_23 0
x7,8_25 0
x7,8_29 0
x7,8_34 0
x7,8_36 0
x7,8_39 0
x7,8_50 0
x7,9_2 0
x7,9_10 0
x7,9_11 0
x7,9_13 0
x7,9_14 0
x7,9_15 0
x7,9_16 0
x7,9_21 0
x7,9_23 0
x7,9_25 0
x7,9_29 0
x7,9_34 0
x7,9_36 0
x7,9_39 0
x7,9_50 0
x7,10_2 0
x7,10_10 0
x7,10_11 0
x7,10_13 0
x7,10_14 0
x7,10_15 0
x7,10_16 0
x7,10_21 0
x7,10_23 0
x7,10_25 0
x7,10_29 0
x7,10_34 0
x7,10_36 0
x7,10_39 0
x7,10_50 0
x7,11_2 0
x7,11_10 0
x7,11_11 0
x7,11_13 0
x7,11_14 0
x7,11_15 0
x7,11_16 0
x7,11_21 0
x7,11_23 0
x7,11_25 0
x7,11_29 0
x7,11_34 0
x7,11_36 0
x7,11_39 0
x7,11_50 0
x7,12_2 0
x7,12_10 0
x7,12_11 0
x7,12_13 0
x7,12_14 0
x7,12_15 0
x7,12_16 0
x7,12_21 0
x7,12_23 0
x7,12_25 0
x7,12_29 0
x7,12_34 0
x7,12_36 0
x7,12_39 0
x7,12_50 0
x7,13_2 0
x7,13_10 0
x7,13_11 0
x7,13_13 0
x7,13_14 0
x7,13_15 0
x7,13_16 0
x7,13_21 0
x7,13_23 0
x7,13_25 0
x7,13_29 0
x7,13_34 0
x7,13_36 0
x7,13_39 0
x7,13_50 0
x7,14_2 0
x7,14_10 0
x7,14_11 0
x7,14_13 0
x7,14_14 0
x7,14_15 0
x7,14_16 0
x7,14_21 0
x7,14_23 0
x7,14_25 0
x7,14_29 0
x7,14_34 0
x7,14_36 0
x7,14_39 0
x7,14_50 0
x7,15_2 0
x7,15_10 0
x7,15_11 0
x7,15_13 0
x7,15_14 0
x7,15_15 0
x7,15_16 0
x7,15_21 0
x7,15_23 0
x7,15_25 0
x7,15_29 0
x7,15_34 0
x7,15_36 0
x7,15_39 0
x7,15_50 0
x8,9_2 0
x8,9_10 0
x8,9_11 0
x8,9_13 0
x8,9_14 0
x8,9_15 0
x8,9_16 0
x8,9_21 0
x8,9_23 0
x8,9_25 0
x8,9_29 0
x8,9_34 0
x8,9_36 0
x8,9_39 0
x8,9_50 0
x8,10_2 0
x8,10_10 0
x8,10_11 0
x8,10_13 0
x8,10_14 0
x8,10_15 0
x8,10_16 0
x8,10_21 0
x8,10_23 0
x8,10_25 0
x8,10_29 0
x8,10_34 0
x8,10_36 0
x8,10_39 0
x8,10_50 0
x8,11_2 0
x8,11_10 0
x8,11_11 0
x8,11_13 0
x8,11_14 0
x8,11_15 0
x8,11_16 0
x8,11_21 0
x8,11_23 0
x8,11_25 0
x8,11_29 0
x8,11_34 0
x8,11_36 0
x8,11_39 0
x8,11_50 0
x8,12_2 0
x8,12_10 0
x8,12_11 0
x8,12_13 0
x8,12_14 0
x8,12_15 0
x8,12_16 0
x8,12_21 0
x8,12_23 0
x8,12_25 0
x8,12_29 0
x8,12_34 0
x8,12_36 0
x8,12_39 0
x8,12_50 0
x8,13_2 0
x8,13_10 0
x8,13_11 0
x8,13_13 0
x8,13_14 0
x8,13_15 0
x8,13_16 0
x8,13_21 0
x8,13_23 0
x8,13_25 0
x8,13_29 0
x8,13_34 0
x8,13_36 0
x8,13_39 0
x8,13_50 0
x8,14_2 0
x8,14_10 0
x8,14_11 0
x8,14_13 0
x8,14_14 0
x8,14_15 0
x8,14_16 0
x8,14_21 0
x8,14_23 0
x8,14_25 0
x8,14_29 0
x8,14_34 0
x8,14_36 0
x8,14_39 0
x8,14_50 0
x8,15_2 0
x8,15_10 0
x8,15_11 0
x8,15_13 0
x8,15_14 0
x8,15_15 0
x8,15_16 0
x8,15_21 0
x8,15_23 0
x8,15_25 0
x8,15_29 0
x8,15_34 0
x8,15_36 0
x8,15_39 0
x8,15_50 0
x9,10_2 0
x9,10_10 0
x9,10_11 0
x9,10_13 0
x9,10_14 0
x9,10_15 0
x9,10_16 0
x9,10_21 0
x9,10_23 0
x9,10_25 0
x9,10_29 0
x9,10_34 0
x9,10_36 0
x9,10_39 0
x9,10_50 0
x9,11_2 0
x9,11_10 0
x9,11_11 0
x9,11_13 0
x9,11_14 0
x9,11_15 0
x9,11_16 0
x9,11_21 0
x9,11_23 0
x9,11_25 0
x9,11_29 0
x9,11_34 0
x9,11_36 0
x9,11_39 0
x9,11_50 0
x9,12_2 0
x9,12_10 0
x9,12_11 0
x9,12_13 0
x9,12_14 0
x9,12_15 0
x9,12_16 0
x9,12_21 0
x9,12_23 0
x9,12_25 0
x9,12_29 0
x9,12_34 0
x9,12_36 0
x9,12_39 0
x9,12_50 0
x9,13_2 0
x9,13_10 0
x9,13_11 0
x9,13_13 0
x9,13_14 0
x9,13_15 0
x9,13_16 0
x9,13_21 0
x9,13_23 0
x9,13_25 0
x9,13_29 0
x9,13_34 0
x9,13_36 0
x9,13_39 0
x9,13_50 0
x9,14_2 0
x9,14_10 0
x9,14_11 0
x9,14_13 0
x9,14_14 0
x9,14_15 0
x9,14_16 0
x9,14_21 0
x9,14_23 0
x9,14_25 0
x9,14_29 0
x9,14_34 0
x9,14_36 0
x9,14_39 0
x9,14_50 0
x9,15_2 0
x9,15_10 0
x9,15_11 0
x9,15_13 0
x9,15_14 0
x9,15_15 0
x9,15_16 0
x9,15_21 0
x9,15_23 0
x9,15_25 0
x9,15_29 0
x9,15_34 0
x9,15_36 0
x9,15_39 0
x9,15_50 0
x10,11_2 0
x10,11_10 0
x10,11_11 0
x10,11_13 0
x10,11_14 0
x10,11_15 0
x10,11_16 0
x10,11_21 0
x10,11_23 0
x10,11_25 0
x10,11_29 0
x10,11_34 0
x10,11_36 0
x10,11_39 0
x10,11_50 0
x10,12_2 0
x10,12_10 0
x10,12_11 0
x10,12_13 0
x10,12_14 0
x10,12_15 0
x10,12_16 0
x10,12_21 0
x10,12_23 0
x10,12_25 0
x10,12_29 0
x10,12_34 0
x10,12_36 0
x10,12_39 0
x10,12_50 0
x10,13_2 0
x10,13_10 0
x10,13_11 0
x10,13_13 0
x10,13_14 0
x10,13_15 0
x10,13_16 0
x10,13_21 0
x10,13_23 0
x10,13_25 0
x10,13_29 0
x10,13_34 0
x10,13_36 0
x10,13_39 0
x10,13_50 0
x10,14_2 0
x10,14_10 0
x10,14_11 0
x10,14_13 0
x10,14_14 0
x10,14_15 0
x10,14_16 0
x10,14_21 0
x10,14_23 0
x10,14_25 0
x10,14_29 0
x10,14_34 0
x10,14_36 0
x10,14_39 0
x10,14_50 0
x10,15_2 0
x10,15_10 0
x10,15_11 0
x10,15_13 0
x10,15_14 0
x10,15_15 0
x10,15_16 0
x10,15_21 0
x10,15_23 0
x10,15_25 0
x10,15_29 0
x10,15_34 0
x10,15_36 0
x10,15_39 0
x10,15_50 0
x11,12_2 0
x11,12_10 0
x11,12_11 0
x11,12_13 0
x11,12_14 0
x11,12_15 0
x11,12_16 0
x11,12_21 0
x11,12_23 0
x11,12_25 0
x11,12_29 0
x11,12_34 0
x11,12_36 0
x11,12_39 0
x11,12_50 0
x11,13_2 0
x11,13_10 0
x11,13_11 0
x11,13_13 0
x11,13_14 0
x11,13_15 0
x11,13_16 0
x11,13_21 0
x11,13_23 0
x11,13_25 0
x11,13_29 0
x11,13_34 0
x11,13_36 0
x11,13_39 0
x11,13_50 0
x11,14_2 0
x11,14_10 0
x11,14_11 0
x11,14_13 0
x11,14_14 0
x11,14_15 0
x11,14_16 0
x11,14_21 0
x11,14_23 0
x11,14_25 0
x11,14_29 0
x11,14_34 0
x11,14_36 0
x11,14_39 0
x11,14_50 0
x11,15_2 0
x11,15_10 0
x11,15_11 0
x11,15_13 0
x11,15_14 0
x11,15_15 0
x11,15_16 0
x11,15_21 0
x11,15_23 0
x11,15_25 0
x11,15_29 0
x11,15_34 0
x11,15_36 0
x11,15_39 0
x11,15_50 0
x12,13_2 0
x12,13_10 0
x12,13_11 0
x12,13_13 0
x12,13_14 0
x12,13_15 0
x12,13_16 0
x12,13_21 0
x12,13_23 0
x12,13_25 0
x12,13_29 0
x12,13_34 0
x12,13_36 0
x12,13_39 0
x12,13_50 0
x12,14_2 0
x12,14_10 0
x12,14_11 0
x12,14_13 0
x12,14_14 0
x12,14_15 0
x12,14_16 0
x12,14_21 0
x12,14_23 0
x12,14_25 0
x12,14_29 0
x12,14_34 0
x12,14_36 0
x12,14_39 0
x12,14_50 0
x12,15_2 0
x12,15_10 0
x12,15_11 0
x12,15_13 0
x12,15_14 0
x12,15_15 0
x12,15_16 0
x12,15_21 0
x12,15_23 0
x12,15_25 0
x12,15_29 0
x12,15_34 0
x12,15_36 0
x12,15_39 0
x12,15_50 0
x13,14_2 0
x13,14_10 0
x13,14_11 0
x13,14_13 0
x13,14_14 0
x13,14_15 0
x13,14_16 0
x13,14_21 0
x13,14_23 0
x13,14_25 0
x13,14_29 0
x13,14_34 0
x13,14_36 0
x13,14_39 0
x13,14_50 0
x13,15_2 0
x13,15_10 0
x13,15_11 0
x13,15_13 0
x13,15_14 0
x13,15_15 0
x13,15_16 0
x13,15_21 0
x13,15_23 0
x13,15_25 0
x13,15_29 0
x13,15_34 0
x13,15_36 0
x13,15_39 0
x13,15_50 0
x14,15_2 0
x14,15_10 0
x14,15_11 0
x14,15_13 0
x14,15_14 0
x14,15_15 0
x14,15_16 0
x14,15_21 0
x14,15_23 0
x14,15_25 0
x14,15_29 0
x14,15_34 0
x14,15_36 0
x14,15_39 0
x14,15_50 0
z0 1
z1 1
z2 1
z3 1
z4 1
z5 1
z6 0
z7 0
z8 0
z9 0
z10 0
z11 0
z12 0
z13 0
z14 0
z15 0
p0 6
p1 17
p2 27
p3 40
p4 42
p5 56
p6 57
p7 58
p8 59
p9 60
p10 61
p11 62
p12 63
p13 64
p14 65
p15 66
